33D32945 STP File, STP Format Version 1.0

SECTION Comments
Name "edge_n12_d3_s7"
Problem "Euclidean Steiner Tree Problem"
Remark "Generated with STPGenerator. 3 dimensions."
END

SECTION Graph
Nodes 12
END

SECTION Coordinates
DDD 0 0.4869041394 0.4869041394 0.4869041394
DDD 1 0.8679774124 0.8679774124 0.8679774124
DDD 2 0.5925911942 0.5925911942 0.5925911942
DDD 3 0.2147098403 0.2147098403 0.2147098403
DDD 4 0.0102265389 0.0102265389 0.0102265389
DDD 5 0.5148185620 0.5148185620 0.5148185620
DDD 6 0.9959482527 0.9959482527 0.9959482527
DDD 7 0.0319323023 0.0319323023 0.0319323023
DDD 8 0.6015652793 0.6015652793 0.6015652793
DDD 9 0.0553448466 0.0553448466 0.0553448466
DDD 10 0.5267799439 0.5267799439 0.5267799439
DDD 11 0.0893740547 0.0893740547 0.0893740547
END
